certificates/rado_a24_c16_N233.cnf
c Rad2 upper bound instance: x1 + 24*x2 - x3 = 16, interval [1,233]
p cnf 233 2340
1 9 0
-1 -9 0
1 2 33 0
-1 -2 -33 0
1 3 57 0
-1 -3 -57 0
1 4 81 0
-1 -4 -81 0
1 5 105 0
-1 -5 -105 0
1 6 129 0
-1 -6 -129 0
1 7 153 0
-1 -7 -153 0
1 8 177 0
-1 -8 -177 0
1 9 201 0
-1 -9 -201 0
1 10 225 0
-1 -10 -225 0
1 2 10 0
-1 -2 -10 0
2 34 0
-2 -34 0
2 3 58 0
-2 -3 -58 0
2 4 82 0
-2 -4 -82 0
2 5 106 0
-2 -5 -106 0
2 6 130 0
-2 -6 -130 0
2 7 154 0
-2 -7 -154 0
2 8 178 0
-2 -8 -178 0
2 9 202 0
-2 -9 -202 0
2 10 226 0
-2 -10 -226 0
1 3 11 0
-1 -3 -11 0
2 3 35 0
-2 -3 -35 0
3 59 0
-3 -59 0
3 4 83 0
-3 -4 -83 0
3 5 107 0
-3 -5 -107 0
3 6 131 0
-3 -6 -131 0
3 7 155 0
-3 -7 -155 0
3 8 179 0
-3 -8 -179 0
3 9 203 0
-3 -9 -203 0
3 10 227 0
-3 -10 -227 0
1 4 12 0
-1 -4 -12 0
2 4 36 0
-2 -4 -36 0
3 4 60 0
-3 -4 -60 0
4 84 0
-4 -84 0
4 5 108 0
-4 -5 -108 0
4 6 132 0
-4 -6 -132 0
4 7 156 0
-4 -7 -156 0
4 8 180 0
-4 -8 -180 0
4 9 204 0
-4 -9 -204 0
4 10 228 0
-4 -10 -228 0
1 5 13 0
-1 -5 -13 0
2 5 37 0
-2 -5 -37 0
3 5 61 0
-3 -5 -61 0
4 5 85 0
-4 -5 -85 0
5 109 0
-5 -109 0
5 6 133 0
-5 -6 -133 0
5 7 157 0
-5 -7 -157 0
5 8 181 0
-5 -8 -181 0
5 9 205 0
-5 -9 -205 0
5 10 229 0
-5 -10 -229 0
1 6 14 0
-1 -6 -14 0
2 6 38 0
-2 -6 -38 0
3 6 62 0
-3 -6 -62 0
4 6 86 0
-4 -6 -86 0
5 6 110 0
-5 -6 -110 0
6 134 0
-6 -134 0
6 7 158 0
-6 -7 -158 0
6 8 182 0
-6 -8 -182 0
6 9 206 0
-6 -9 -206 0
6 10 230 0
-6 -10 -230 0
1 7 15 0
-1 -7 -15 0
2 7 39 0
-2 -7 -39 0
3 7 63 0
-3 -7 -63 0
4 7 87 0
-4 -7 -87 0
5 7 111 0
-5 -7 -111 0
6 7 135 0
-6 -7 -135 0
7 159 0
-7 -159 0
7 8 183 0
-7 -8 -183 0
7 9 207 0
-7 -9 -207 0
7 10 231 0
-7 -10 -231 0
1 8 16 0
-1 -8 -16 0
2 8 40 0
-2 -8 -40 0
3 8 64 0
-3 -8 -64 0
4 8 88 0
-4 -8 -88 0
5 8 112 0
-5 -8 -112 0
6 8 136 0
-6 -8 -136 0
7 8 160 0
-7 -8 -160 0
8 184 0
-8 -184 0
8 9 208 0
-8 -9 -208 0
8 10 232 0
-8 -10 -232 0
1 9 17 0
-1 -9 -17 0
2 9 41 0
-2 -9 -41 0
3 9 65 0
-3 -9 -65 0
4 9 89 0
-4 -9 -89 0
5 9 113 0
-5 -9 -113 0
6 9 137 0
-6 -9 -137 0
7 9 161 0
-7 -9 -161 0
8 9 185 0
-8 -9 -185 0
9 209 0
-9 -209 0
9 10 233 0
-9 -10 -233 0
1 10 18 0
-1 -10 -18 0
2 10 42 0
-2 -10 -42 0
3 10 66 0
-3 -10 -66 0
4 10 90 0
-4 -10 -90 0
5 10 114 0
-5 -10 -114 0
6 10 138 0
-6 -10 -138 0
7 10 162 0
-7 -10 -162 0
8 10 186 0
-8 -10 -186 0
9 10 210 0
-9 -10 -210 0
1 11 19 0
-1 -11 -19 0
2 11 43 0
-2 -11 -43 0
3 11 67 0
-3 -11 -67 0
4 11 91 0
-4 -11 -91 0
5 11 115 0
-5 -11 -115 0
6 11 139 0
-6 -11 -139 0
7 11 163 0
-7 -11 -163 0
8 11 187 0
-8 -11 -187 0
9 11 211 0
-9 -11 -211 0
1 12 20 0
-1 -12 -20 0
2 12 44 0
-2 -12 -44 0
3 12 68 0
-3 -12 -68 0
4 12 92 0
-4 -12 -92 0
5 12 116 0
-5 -12 -116 0
6 12 140 0
-6 -12 -140 0
7 12 164 0
-7 -12 -164 0
8 12 188 0
-8 -12 -188 0
9 12 212 0
-9 -12 -212 0
1 13 21 0
-1 -13 -21 0
2 13 45 0
-2 -13 -45 0
3 13 69 0
-3 -13 -69 0
4 13 93 0
-4 -13 -93 0
5 13 117 0
-5 -13 -117 0
6 13 141 0
-6 -13 -141 0
7 13 165 0
-7 -13 -165 0
8 13 189 0
-8 -13 -189 0
9 13 213 0
-9 -13 -213 0
1 14 22 0
-1 -14 -22 0
2 14 46 0
-2 -14 -46 0
3 14 70 0
-3 -14 -70 0
4 14 94 0
-4 -14 -94 0
5 14 118 0
-5 -14 -118 0
6 14 142 0
-6 -14 -142 0
7 14 166 0
-7 -14 -166 0
8 14 190 0
-8 -14 -190 0
9 14 214 0
-9 -14 -214 0
1 15 23 0
-1 -15 -23 0
2 15 47 0
-2 -15 -47 0
3 15 71 0
-3 -15 -71 0
4 15 95 0
-4 -15 -95 0
5 15 119 0
-5 -15 -119 0
6 15 143 0
-6 -15 -143 0
7 15 167 0
-7 -15 -167 0
8 15 191 0
-8 -15 -191 0
9 15 215 0
-9 -15 -215 0
1 16 24 0
-1 -16 -24 0
2 16 48 0
-2 -16 -48 0
3 16 72 0
-3 -16 -72 0
4 16 96 0
-4 -16 -96 0
5 16 120 0
-5 -16 -120 0
6 16 144 0
-6 -16 -144 0
7 16 168 0
-7 -16 -168 0
8 16 192 0
-8 -16 -192 0
9 16 216 0
-9 -16 -216 0
1 17 25 0
-1 -17 -25 0
2 17 49 0
-2 -17 -49 0
3 17 73 0
-3 -17 -73 0
4 17 97 0
-4 -17 -97 0
5 17 121 0
-5 -17 -121 0
6 17 145 0
-6 -17 -145 0
7 17 169 0
-7 -17 -169 0
8 17 193 0
-8 -17 -193 0
9 17 217 0
-9 -17 -217 0
1 18 26 0
-1 -18 -26 0
2 18 50 0
-2 -18 -50 0
3 18 74 0
-3 -18 -74 0
4 18 98 0
-4 -18 -98 0
5 18 122 0
-5 -18 -122 0
6 18 146 0
-6 -18 -146 0
7 18 170 0
-7 -18 -170 0
8 18 194 0
-8 -18 -194 0
9 18 218 0
-9 -18 -218 0
1 19 27 0
-1 -19 -27 0
2 19 51 0
-2 -19 -51 0
3 19 75 0
-3 -19 -75 0
4 19 99 0
-4 -19 -99 0
5 19 123 0
-5 -19 -123 0
6 19 147 0
-6 -19 -147 0
7 19 171 0
-7 -19 -171 0
8 19 195 0
-8 -19 -195 0
9 19 219 0
-9 -19 -219 0
1 20 28 0
-1 -20 -28 0
2 20 52 0
-2 -20 -52 0
3 20 76 0
-3 -20 -76 0
4 20 100 0
-4 -20 -100 0
5 20 124 0
-5 -20 -124 0
6 20 148 0
-6 -20 -148 0
7 20 172 0
-7 -20 -172 0
8 20 196 0
-8 -20 -196 0
9 20 220 0
-9 -20 -220 0
1 21 29 0
-1 -21 -29 0
2 21 53 0
-2 -21 -53 0
3 21 77 0
-3 -21 -77 0
4 21 101 0
-4 -21 -101 0
5 21 125 0
-5 -21 -125 0
6 21 149 0
-6 -21 -149 0
7 21 173 0
-7 -21 -173 0
8 21 197 0
-8 -21 -197 0
9 21 221 0
-9 -21 -221 0
1 22 30 0
-1 -22 -30 0
2 22 54 0
-2 -22 -54 0
3 22 78 0
-3 -22 -78 0
4 22 102 0
-4 -22 -102 0
5 22 126 0
-5 -22 -126 0
6 22 150 0
-6 -22 -150 0
7 22 174 0
-7 -22 -174 0
8 22 198 0
-8 -22 -198 0
9 22 222 0
-9 -22 -222 0
1 23 31 0
-1 -23 -31 0
2 23 55 0
-2 -23 -55 0
3 23 79 0
-3 -23 -79 0
4 23 103 0
-4 -23 -103 0
5 23 127 0
-5 -23 -127 0
6 23 151 0
-6 -23 -151 0
7 23 175 0
-7 -23 -175 0
8 23 199 0
-8 -23 -199 0
9 23 223 0
-9 -23 -223 0
1 24 32 0
-1 -24 -32 0
2 24 56 0
-2 -24 -56 0
3 24 80 0
-3 -24 -80 0
4 24 104 0
-4 -24 -104 0
5 24 128 0
-5 -24 -128 0
6 24 152 0
-6 -24 -152 0
7 24 176 0
-7 -24 -176 0
8 24 200 0
-8 -24 -200 0
9 24 224 0
-9 -24 -224 0
1 25 33 0
-1 -25 -33 0
2 25 57 0
-2 -25 -57 0
3 25 81 0
-3 -25 -81 0
4 25 105 0
-4 -25 -105 0
5 25 129 0
-5 -25 -129 0
6 25 153 0
-6 -25 -153 0
7 25 177 0
-7 -25 -177 0
8 25 201 0
-8 -25 -201 0
9 25 225 0
-9 -25 -225 0
1 26 34 0
-1 -26 -34 0
2 26 58 0
-2 -26 -58 0
3 26 82 0
-3 -26 -82 0
4 26 106 0
-4 -26 -106 0
5 26 130 0
-5 -26 -130 0
6 26 154 0
-6 -26 -154 0
7 26 178 0
-7 -26 -178 0
8 26 202 0
-8 -26 -202 0
9 26 226 0
-9 -26 -226 0
1 27 35 0
-1 -27 -35 0
2 27 59 0
-2 -27 -59 0
3 27 83 0
-3 -27 -83 0
4 27 107 0
-4 -27 -107 0
5 27 131 0
-5 -27 -131 0
6 27 155 0
-6 -27 -155 0
7 27 179 0
-7 -27 -179 0
8 27 203 0
-8 -27 -203 0
9 27 227 0
-9 -27 -227 0
1 28 36 0
-1 -28 -36 0
2 28 60 0
-2 -28 -60 0
3 28 84 0
-3 -28 -84 0
4 28 108 0
-4 -28 -108 0
5 28 132 0
-5 -28 -132 0
6 28 156 0
-6 -28 -156 0
7 28 180 0
-7 -28 -180 0
8 28 204 0
-8 -28 -204 0
9 28 228 0
-9 -28 -228 0
1 29 37 0
-1 -29 -37 0
2 29 61 0
-2 -29 -61 0
3 29 85 0
-3 -29 -85 0
4 29 109 0
-4 -29 -109 0
5 29 133 0
-5 -29 -133 0
6 29 157 0
-6 -29 -157 0
7 29 181 0
-7 -29 -181 0
8 29 205 0
-8 -29 -205 0
9 29 229 0
-9 -29 -229 0
1 30 38 0
-1 -30 -38 0
2 30 62 0
-2 -30 -62 0
3 30 86 0
-3 -30 -86 0
4 30 110 0
-4 -30 -110 0
5 30 134 0
-5 -30 -134 0
6 30 158 0
-6 -30 -158 0
7 30 182 0
-7 -30 -182 0
8 30 206 0
-8 -30 -206 0
9 30 230 0
-9 -30 -230 0
1 31 39 0
-1 -31 -39 0
2 31 63 0
-2 -31 -63 0
3 31 87 0
-3 -31 -87 0
4 31 111 0
-4 -31 -111 0
5 31 135 0
-5 -31 -135 0
6 31 159 0
-6 -31 -159 0
7 31 183 0
-7 -31 -183 0
8 31 207 0
-8 -31 -207 0
9 31 231 0
-9 -31 -231 0
1 32 40 0
-1 -32 -40 0
2 32 64 0
-2 -32 -64 0
3 32 88 0
-3 -32 -88 0
4 32 112 0
-4 -32 -112 0
5 32 136 0
-5 -32 -136 0
6 32 160 0
-6 -32 -160 0
7 32 184 0
-7 -32 -184 0
8 32 208 0
-8 -32 -208 0
9 32 232 0
-9 -32 -232 0
1 33 41 0
-1 -33 -41 0
2 33 65 0
-2 -33 -65 0
3 33 89 0
-3 -33 -89 0
4 33 113 0
-4 -33 -113 0
5 33 137 0
-5 -33 -137 0
6 33 161 0
-6 -33 -161 0
7 33 185 0
-7 -33 -185 0
8 33 209 0
-8 -33 -209 0
9 33 233 0
-9 -33 -233 0
1 34 42 0
-1 -34 -42 0
2 34 66 0
-2 -34 -66 0
3 34 90 0
-3 -34 -90 0
4 34 114 0
-4 -34 -114 0
5 34 138 0
-5 -34 -138 0
6 34 162 0
-6 -34 -162 0
7 34 186 0
-7 -34 -186 0
8 34 210 0
-8 -34 -210 0
1 35 43 0
-1 -35 -43 0
2 35 67 0
-2 -35 -67 0
3 35 91 0
-3 -35 -91 0
4 35 115 0
-4 -35 -115 0
5 35 139 0
-5 -35 -139 0
6 35 163 0
-6 -35 -163 0
7 35 187 0
-7 -35 -187 0
8 35 211 0
-8 -35 -211 0
1 36 44 0
-1 -36 -44 0
2 36 68 0
-2 -36 -68 0
3 36 92 0
-3 -36 -92 0
4 36 116 0
-4 -36 -116 0
5 36 140 0
-5 -36 -140 0
6 36 164 0
-6 -36 -164 0
7 36 188 0
-7 -36 -188 0
8 36 212 0
-8 -36 -212 0
1 37 45 0
-1 -37 -45 0
2 37 69 0
-2 -37 -69 0
3 37 93 0
-3 -37 -93 0
4 37 117 0
-4 -37 -117 0
5 37 141 0
-5 -37 -141 0
6 37 165 0
-6 -37 -165 0
7 37 189 0
-7 -37 -189 0
8 37 213 0
-8 -37 -213 0
1 38 46 0
-1 -38 -46 0
2 38 70 0
-2 -38 -70 0
3 38 94 0
-3 -38 -94 0
4 38 118 0
-4 -38 -118 0
5 38 142 0
-5 -38 -142 0
6 38 166 0
-6 -38 -166 0
7 38 190 0
-7 -38 -190 0
8 38 214 0
-8 -38 -214 0
1 39 47 0
-1 -39 -47 0
2 39 71 0
-2 -39 -71 0
3 39 95 0
-3 -39 -95 0
4 39 119 0
-4 -39 -119 0
5 39 143 0
-5 -39 -143 0
6 39 167 0
-6 -39 -167 0
7 39 191 0
-7 -39 -191 0
8 39 215 0
-8 -39 -215 0
1 40 48 0
-1 -40 -48 0
2 40 72 0
-2 -40 -72 0
3 40 96 0
-3 -40 -96 0
4 40 120 0
-4 -40 -120 0
5 40 144 0
-5 -40 -144 0
6 40 168 0
-6 -40 -168 0
7 40 192 0
-7 -40 -192 0
8 40 216 0
-8 -40 -216 0
1 41 49 0
-1 -41 -49 0
2 41 73 0
-2 -41 -73 0
3 41 97 0
-3 -41 -97 0
4 41 121 0
-4 -41 -121 0
5 41 145 0
-5 -41 -145 0
6 41 169 0
-6 -41 -169 0
7 41 193 0
-7 -41 -193 0
8 41 217 0
-8 -41 -217 0
1 42 50 0
-1 -42 -50 0
2 42 74 0
-2 -42 -74 0
3 42 98 0
-3 -42 -98 0
4 42 122 0
-4 -42 -122 0
5 42 146 0
-5 -42 -146 0
6 42 170 0
-6 -42 -170 0
7 42 194 0
-7 -42 -194 0
8 42 218 0
-8 -42 -218 0
1 43 51 0
-1 -43 -51 0
2 43 75 0
-2 -43 -75 0
3 43 99 0
-3 -43 -99 0
4 43 123 0
-4 -43 -123 0
5 43 147 0
-5 -43 -147 0
6 43 171 0
-6 -43 -171 0
7 43 195 0
-7 -43 -195 0
8 43 219 0
-8 -43 -219 0
1 44 52 0
-1 -44 -52 0
2 44 76 0
-2 -44 -76 0
3 44 100 0
-3 -44 -100 0
4 44 124 0
-4 -44 -124 0
5 44 148 0
-5 -44 -148 0
6 44 172 0
-6 -44 -172 0
7 44 196 0
-7 -44 -196 0
8 44 220 0
-8 -44 -220 0
1 45 53 0
-1 -45 -53 0
2 45 77 0
-2 -45 -77 0
3 45 101 0
-3 -45 -101 0
4 45 125 0
-4 -45 -125 0
5 45 149 0
-5 -45 -149 0
6 45 173 0
-6 -45 -173 0
7 45 197 0
-7 -45 -197 0
8 45 221 0
-8 -45 -221 0
1 46 54 0
-1 -46 -54 0
2 46 78 0
-2 -46 -78 0
3 46 102 0
-3 -46 -102 0
4 46 126 0
-4 -46 -126 0
5 46 150 0
-5 -46 -150 0
6 46 174 0
-6 -46 -174 0
7 46 198 0
-7 -46 -198 0
8 46 222 0
-8 -46 -222 0
1 47 55 0
-1 -47 -55 0
2 47 79 0
-2 -47 -79 0
3 47 103 0
-3 -47 -103 0
4 47 127 0
-4 -47 -127 0
5 47 151 0
-5 -47 -151 0
6 47 175 0
-6 -47 -175 0
7 47 199 0
-7 -47 -199 0
8 47 223 0
-8 -47 -223 0
1 48 56 0
-1 -48 -56 0
2 48 80 0
-2 -48 -80 0
3 48 104 0
-3 -48 -104 0
4 48 128 0
-4 -48 -128 0
5 48 152 0
-5 -48 -152 0
6 48 176 0
-6 -48 -176 0
7 48 200 0
-7 -48 -200 0
8 48 224 0
-8 -48 -224 0
1 49 57 0
-1 -49 -57 0
2 49 81 0
-2 -49 -81 0
3 49 105 0
-3 -49 -105 0
4 49 129 0
-4 -49 -129 0
5 49 153 0
-5 -49 -153 0
6 49 177 0
-6 -49 -177 0
7 49 201 0
-7 -49 -201 0
8 49 225 0
-8 -49 -225 0
1 50 58 0
-1 -50 -58 0
2 50 82 0
-2 -50 -82 0
3 50 106 0
-3 -50 -106 0
4 50 130 0
-4 -50 -130 0
5 50 154 0
-5 -50 -154 0
6 50 178 0
-6 -50 -178 0
7 50 202 0
-7 -50 -202 0
8 50 226 0
-8 -50 -226 0
1 51 59 0
-1 -51 -59 0
2 51 83 0
-2 -51 -83 0
3 51 107 0
-3 -51 -107 0
4 51 131 0
-4 -51 -131 0
5 51 155 0
-5 -51 -155 0
6 51 179 0
-6 -51 -179 0
7 51 203 0
-7 -51 -203 0
8 51 227 0
-8 -51 -227 0
1 52 60 0
-1 -52 -60 0
2 52 84 0
-2 -52 -84 0
3 52 108 0
-3 -52 -108 0
4 52 132 0
-4 -52 -132 0
5 52 156 0
-5 -52 -156 0
6 52 180 0
-6 -52 -180 0
7 52 204 0
-7 -52 -204 0
8 52 228 0
-8 -52 -228 0
1 53 61 0
-1 -53 -61 0
2 53 85 0
-2 -53 -85 0
3 53 109 0
-3 -53 -109 0
4 53 133 0
-4 -53 -133 0
5 53 157 0
-5 -53 -157 0
6 53 181 0
-6 -53 -181 0
7 53 205 0
-7 -53 -205 0
8 53 229 0
-8 -53 -229 0
1 54 62 0
-1 -54 -62 0
2 54 86 0
-2 -54 -86 0
3 54 110 0
-3 -54 -110 0
4 54 134 0
-4 -54 -134 0
5 54 158 0
-5 -54 -158 0
6 54 182 0
-6 -54 -182 0
7 54 206 0
-7 -54 -206 0
8 54 230 0
-8 -54 -230 0
1 55 63 0
-1 -55 -63 0
2 55 87 0
-2 -55 -87 0
3 55 111 0
-3 -55 -111 0
4 55 135 0
-4 -55 -135 0
5 55 159 0
-5 -55 -159 0
6 55 183 0
-6 -55 -183 0
7 55 207 0
-7 -55 -207 0
8 55 231 0
-8 -55 -231 0
1 56 64 0
-1 -56 -64 0
2 56 88 0
-2 -56 -88 0
3 56 112 0
-3 -56 -112 0
4 56 136 0
-4 -56 -136 0
5 56 160 0
-5 -56 -160 0
6 56 184 0
-6 -56 -184 0
7 56 208 0
-7 -56 -208 0
8 56 232 0
-8 -56 -232 0
1 57 65 0
-1 -57 -65 0
2 57 89 0
-2 -57 -89 0
3 57 113 0
-3 -57 -113 0
4 57 137 0
-4 -57 -137 0
5 57 161 0
-5 -57 -161 0
6 57 185 0
-6 -57 -185 0
7 57 209 0
-7 -57 -209 0
8 57 233 0
-8 -57 -233 0
1 58 66 0
-1 -58 -66 0
2 58 90 0
-2 -58 -90 0
3 58 114 0
-3 -58 -114 0
4 58 138 0
-4 -58 -138 0
5 58 162 0
-5 -58 -162 0
6 58 186 0
-6 -58 -186 0
7 58 210 0
-7 -58 -210 0
1 59 67 0
-1 -59 -67 0
2 59 91 0
-2 -59 -91 0
3 59 115 0
-3 -59 -115 0
4 59 139 0
-4 -59 -139 0
5 59 163 0
-5 -59 -163 0
6 59 187 0
-6 -59 -187 0
7 59 211 0
-7 -59 -211 0
1 60 68 0
-1 -60 -68 0
2 60 92 0
-2 -60 -92 0
3 60 116 0
-3 -60 -116 0
4 60 140 0
-4 -60 -140 0
5 60 164 0
-5 -60 -164 0
6 60 188 0
-6 -60 -188 0
7 60 212 0
-7 -60 -212 0
1 61 69 0
-1 -61 -69 0
2 61 93 0
-2 -61 -93 0
3 61 117 0
-3 -61 -117 0
4 61 141 0
-4 -61 -141 0
5 61 165 0
-5 -61 -165 0
6 61 189 0
-6 -61 -189 0
7 61 213 0
-7 -61 -213 0
1 62 70 0
-1 -62 -70 0
2 62 94 0
-2 -62 -94 0
3 62 118 0
-3 -62 -118 0
4 62 142 0
-4 -62 -142 0
5 62 166 0
-5 -62 -166 0
6 62 190 0
-6 -62 -190 0
7 62 214 0
-7 -62 -214 0
1 63 71 0
-1 -63 -71 0
2 63 95 0
-2 -63 -95 0
3 63 119 0
-3 -63 -119 0
4 63 143 0
-4 -63 -143 0
5 63 167 0
-5 -63 -167 0
6 63 191 0
-6 -63 -191 0
7 63 215 0
-7 -63 -215 0
1 64 72 0
-1 -64 -72 0
2 64 96 0
-2 -64 -96 0
3 64 120 0
-3 -64 -120 0
4 64 144 0
-4 -64 -144 0
5 64 168 0
-5 -64 -168 0
6 64 192 0
-6 -64 -192 0
7 64 216 0
-7 -64 -216 0
1 65 73 0
-1 -65 -73 0
2 65 97 0
-2 -65 -97 0
3 65 121 0
-3 -65 -121 0
4 65 145 0
-4 -65 -145 0
5 65 169 0
-5 -65 -169 0
6 65 193 0
-6 -65 -193 0
7 65 217 0
-7 -65 -217 0
1 66 74 0
-1 -66 -74 0
2 66 98 0
-2 -66 -98 0
3 66 122 0
-3 -66 -122 0
4 66 146 0
-4 -66 -146 0
5 66 170 0
-5 -66 -170 0
6 66 194 0
-6 -66 -194 0
7 66 218 0
-7 -66 -218 0
1 67 75 0
-1 -67 -75 0
2 67 99 0
-2 -67 -99 0
3 67 123 0
-3 -67 -123 0
4 67 147 0
-4 -67 -147 0
5 67 171 0
-5 -67 -171 0
6 67 195 0
-6 -67 -195 0
7 67 219 0
-7 -67 -219 0
1 68 76 0
-1 -68 -76 0
2 68 100 0
-2 -68 -100 0
3 68 124 0
-3 -68 -124 0
4 68 148 0
-4 -68 -148 0
5 68 172 0
-5 -68 -172 0
6 68 196 0
-6 -68 -196 0
7 68 220 0
-7 -68 -220 0
1 69 77 0
-1 -69 -77 0
2 69 101 0
-2 -69 -101 0
3 69 125 0
-3 -69 -125 0
4 69 149 0
-4 -69 -149 0
5 69 173 0
-5 -69 -173 0
6 69 197 0
-6 -69 -197 0
7 69 221 0
-7 -69 -221 0
1 70 78 0
-1 -70 -78 0
2 70 102 0
-2 -70 -102 0
3 70 126 0
-3 -70 -126 0
4 70 150 0
-4 -70 -150 0
5 70 174 0
-5 -70 -174 0
6 70 198 0
-6 -70 -198 0
7 70 222 0
-7 -70 -222 0
1 71 79 0
-1 -71 -79 0
2 71 103 0
-2 -71 -103 0
3 71 127 0
-3 -71 -127 0
4 71 151 0
-4 -71 -151 0
5 71 175 0
-5 -71 -175 0
6 71 199 0
-6 -71 -199 0
7 71 223 0
-7 -71 -223 0
1 72 80 0
-1 -72 -80 0
2 72 104 0
-2 -72 -104 0
3 72 128 0
-3 -72 -128 0
4 72 152 0
-4 -72 -152 0
5 72 176 0
-5 -72 -176 0
6 72 200 0
-6 -72 -200 0
7 72 224 0
-7 -72 -224 0
1 73 81 0
-1 -73 -81 0
2 73 105 0
-2 -73 -105 0
3 73 129 0
-3 -73 -129 0
4 73 153 0
-4 -73 -153 0
5 73 177 0
-5 -73 -177 0
6 73 201 0
-6 -73 -201 0
7 73 225 0
-7 -73 -225 0
1 74 82 0
-1 -74 -82 0
2 74 106 0
-2 -74 -106 0
3 74 130 0
-3 -74 -130 0
4 74 154 0
-4 -74 -154 0
5 74 178 0
-5 -74 -178 0
6 74 202 0
-6 -74 -202 0
7 74 226 0
-7 -74 -226 0
1 75 83 0
-1 -75 -83 0
2 75 107 0
-2 -75 -107 0
3 75 131 0
-3 -75 -131 0
4 75 155 0
-4 -75 -155 0
5 75 179 0
-5 -75 -179 0
6 75 203 0
-6 -75 -203 0
7 75 227 0
-7 -75 -227 0
1 76 84 0
-1 -76 -84 0
2 76 108 0
-2 -76 -108 0
3 76 132 0
-3 -76 -132 0
4 76 156 0
-4 -76 -156 0
5 76 180 0
-5 -76 -180 0
6 76 204 0
-6 -76 -204 0
7 76 228 0
-7 -76 -228 0
1 77 85 0
-1 -77 -85 0
2 77 109 0
-2 -77 -109 0
3 77 133 0
-3 -77 -133 0
4 77 157 0
-4 -77 -157 0
5 77 181 0
-5 -77 -181 0
6 77 205 0
-6 -77 -205 0
7 77 229 0
-7 -77 -229 0
1 78 86 0
-1 -78 -86 0
2 78 110 0
-2 -78 -110 0
3 78 134 0
-3 -78 -134 0
4 78 158 0
-4 -78 -158 0
5 78 182 0
-5 -78 -182 0
6 78 206 0
-6 -78 -206 0
7 78 230 0
-7 -78 -230 0
1 79 87 0
-1 -79 -87 0
2 79 111 0
-2 -79 -111 0
3 79 135 0
-3 -79 -135 0
4 79 159 0
-4 -79 -159 0
5 79 183 0
-5 -79 -183 0
6 79 207 0
-6 -79 -207 0
7 79 231 0
-7 -79 -231 0
1 80 88 0
-1 -80 -88 0
2 80 112 0
-2 -80 -112 0
3 80 136 0
-3 -80 -136 0
4 80 160 0
-4 -80 -160 0
5 80 184 0
-5 -80 -184 0
6 80 208 0
-6 -80 -208 0
7 80 232 0
-7 -80 -232 0
1 81 89 0
-1 -81 -89 0
2 81 113 0
-2 -81 -113 0
3 81 137 0
-3 -81 -137 0
4 81 161 0
-4 -81 -161 0
5 81 185 0
-5 -81 -185 0
6 81 209 0
-6 -81 -209 0
7 81 233 0
-7 -81 -233 0
1 82 90 0
-1 -82 -90 0
2 82 114 0
-2 -82 -114 0
3 82 138 0
-3 -82 -138 0
4 82 162 0
-4 -82 -162 0
5 82 186 0
-5 -82 -186 0
6 82 210 0
-6 -82 -210 0
1 83 91 0
-1 -83 -91 0
2 83 115 0
-2 -83 -115 0
3 83 139 0
-3 -83 -139 0
4 83 163 0
-4 -83 -163 0
5 83 187 0
-5 -83 -187 0
6 83 211 0
-6 -83 -211 0
1 84 92 0
-1 -84 -92 0
2 84 116 0
-2 -84 -116 0
3 84 140 0
-3 -84 -140 0
4 84 164 0
-4 -84 -164 0
5 84 188 0
-5 -84 -188 0
6 84 212 0
-6 -84 -212 0
1 85 93 0
-1 -85 -93 0
2 85 117 0
-2 -85 -117 0
3 85 141 0
-3 -85 -141 0
4 85 165 0
-4 -85 -165 0
5 85 189 0
-5 -85 -189 0
6 85 213 0
-6 -85 -213 0
1 86 94 0
-1 -86 -94 0
2 86 118 0
-2 -86 -118 0
3 86 142 0
-3 -86 -142 0
4 86 166 0
-4 -86 -166 0
5 86 190 0
-5 -86 -190 0
6 86 214 0
-6 -86 -214 0
1 87 95 0
-1 -87 -95 0
2 87 119 0
-2 -87 -119 0
3 87 143 0
-3 -87 -143 0
4 87 167 0
-4 -87 -167 0
5 87 191 0
-5 -87 -191 0
6 87 215 0
-6 -87 -215 0
1 88 96 0
-1 -88 -96 0
2 88 120 0
-2 -88 -120 0
3 88 144 0
-3 -88 -144 0
4 88 168 0
-4 -88 -168 0
5 88 192 0
-5 -88 -192 0
6 88 216 0
-6 -88 -216 0
1 89 97 0
-1 -89 -97 0
2 89 121 0
-2 -89 -121 0
3 89 145 0
-3 -89 -145 0
4 89 169 0
-4 -89 -169 0
5 89 193 0
-5 -89 -193 0
6 89 217 0
-6 -89 -217 0
1 90 98 0
-1 -90 -98 0
2 90 122 0
-2 -90 -122 0
3 90 146 0
-3 -90 -146 0
4 90 170 0
-4 -90 -170 0
5 90 194 0
-5 -90 -194 0
6 90 218 0
-6 -90 -218 0
1 91 99 0
-1 -91 -99 0
2 91 123 0
-2 -91 -123 0
3 91 147 0
-3 -91 -147 0
4 91 171 0
-4 -91 -171 0
5 91 195 0
-5 -91 -195 0
6 91 219 0
-6 -91 -219 0
1 92 100 0
-1 -92 -100 0
2 92 124 0
-2 -92 -124 0
3 92 148 0
-3 -92 -148 0
4 92 172 0
-4 -92 -172 0
5 92 196 0
-5 -92 -196 0
6 92 220 0
-6 -92 -220 0
1 93 101 0
-1 -93 -101 0
2 93 125 0
-2 -93 -125 0
3 93 149 0
-3 -93 -149 0
4 93 173 0
-4 -93 -173 0
5 93 197 0
-5 -93 -197 0
6 93 221 0
-6 -93 -221 0
1 94 102 0
-1 -94 -102 0
2 94 126 0
-2 -94 -126 0
3 94 150 0
-3 -94 -150 0
4 94 174 0
-4 -94 -174 0
5 94 198 0
-5 -94 -198 0
6 94 222 0
-6 -94 -222 0
1 95 103 0
-1 -95 -103 0
2 95 127 0
-2 -95 -127 0
3 95 151 0
-3 -95 -151 0
4 95 175 0
-4 -95 -175 0
5 95 199 0
-5 -95 -199 0
6 95 223 0
-6 -95 -223 0
1 96 104 0
-1 -96 -104 0
2 96 128 0
-2 -96 -128 0
3 96 152 0
-3 -96 -152 0
4 96 176 0
-4 -96 -176 0
5 96 200 0
-5 -96 -200 0
6 96 224 0
-6 -96 -224 0
1 97 105 0
-1 -97 -105 0
2 97 129 0
-2 -97 -129 0
3 97 153 0
-3 -97 -153 0
4 97 177 0
-4 -97 -177 0
5 97 201 0
-5 -97 -201 0
6 97 225 0
-6 -97 -225 0
1 98 106 0
-1 -98 -106 0
2 98 130 0
-2 -98 -130 0
3 98 154 0
-3 -98 -154 0
4 98 178 0
-4 -98 -178 0
5 98 202 0
-5 -98 -202 0
6 98 226 0
-6 -98 -226 0
1 99 107 0
-1 -99 -107 0
2 99 131 0
-2 -99 -131 0
3 99 155 0
-3 -99 -155 0
4 99 179 0
-4 -99 -179 0
5 99 203 0
-5 -99 -203 0
6 99 227 0
-6 -99 -227 0
1 100 108 0
-1 -100 -108 0
2 100 132 0
-2 -100 -132 0
3 100 156 0
-3 -100 -156 0
4 100 180 0
-4 -100 -180 0
5 100 204 0
-5 -100 -204 0
6 100 228 0
-6 -100 -228 0
1 101 109 0
-1 -101 -109 0
2 101 133 0
-2 -101 -133 0
3 101 157 0
-3 -101 -157 0
4 101 181 0
-4 -101 -181 0
5 101 205 0
-5 -101 -205 0
6 101 229 0
-6 -101 -229 0
1 102 110 0
-1 -102 -110 0
2 102 134 0
-2 -102 -134 0
3 102 158 0
-3 -102 -158 0
4 102 182 0
-4 -102 -182 0
5 102 206 0
-5 -102 -206 0
6 102 230 0
-6 -102 -230 0
1 103 111 0
-1 -103 -111 0
2 103 135 0
-2 -103 -135 0
3 103 159 0
-3 -103 -159 0
4 103 183 0
-4 -103 -183 0
5 103 207 0
-5 -103 -207 0
6 103 231 0
-6 -103 -231 0
1 104 112 0
-1 -104 -112 0
2 104 136 0
-2 -104 -136 0
3 104 160 0
-3 -104 -160 0
4 104 184 0
-4 -104 -184 0
5 104 208 0
-5 -104 -208 0
6 104 232 0
-6 -104 -232 0
1 105 113 0
-1 -105 -113 0
2 105 137 0
-2 -105 -137 0
3 105 161 0
-3 -105 -161 0
4 105 185 0
-4 -105 -185 0
5 105 209 0
-5 -105 -209 0
6 105 233 0
-6 -105 -233 0
1 106 114 0
-1 -106 -114 0
2 106 138 0
-2 -106 -138 0
3 106 162 0
-3 -106 -162 0
4 106 186 0
-4 -106 -186 0
5 106 210 0
-5 -106 -210 0
1 107 115 0
-1 -107 -115 0
2 107 139 0
-2 -107 -139 0
3 107 163 0
-3 -107 -163 0
4 107 187 0
-4 -107 -187 0
5 107 211 0
-5 -107 -211 0
1 108 116 0
-1 -108 -116 0
2 108 140 0
-2 -108 -140 0
3 108 164 0
-3 -108 -164 0
4 108 188 0
-4 -108 -188 0
5 108 212 0
-5 -108 -212 0
1 109 117 0
-1 -109 -117 0
2 109 141 0
-2 -109 -141 0
3 109 165 0
-3 -109 -165 0
4 109 189 0
-4 -109 -189 0
5 109 213 0
-5 -109 -213 0
1 110 118 0
-1 -110 -118 0
2 110 142 0
-2 -110 -142 0
3 110 166 0
-3 -110 -166 0
4 110 190 0
-4 -110 -190 0
5 110 214 0
-5 -110 -214 0
1 111 119 0
-1 -111 -119 0
2 111 143 0
-2 -111 -143 0
3 111 167 0
-3 -111 -167 0
4 111 191 0
-4 -111 -191 0
5 111 215 0
-5 -111 -215 0
1 112 120 0
-1 -112 -120 0
2 112 144 0
-2 -112 -144 0
3 112 168 0
-3 -112 -168 0
4 112 192 0
-4 -112 -192 0
5 112 216 0
-5 -112 -216 0
1 113 121 0
-1 -113 -121 0
2 113 145 0
-2 -113 -145 0
3 113 169 0
-3 -113 -169 0
4 113 193 0
-4 -113 -193 0
5 113 217 0
-5 -113 -217 0
1 114 122 0
-1 -114 -122 0
2 114 146 0
-2 -114 -146 0
3 114 170 0
-3 -114 -170 0
4 114 194 0
-4 -114 -194 0
5 114 218 0
-5 -114 -218 0
1 115 123 0
-1 -115 -123 0
2 115 147 0
-2 -115 -147 0
3 115 171 0
-3 -115 -171 0
4 115 195 0
-4 -115 -195 0
5 115 219 0
-5 -115 -219 0
1 116 124 0
-1 -116 -124 0
2 116 148 0
-2 -116 -148 0
3 116 172 0
-3 -116 -172 0
4 116 196 0
-4 -116 -196 0
5 116 220 0
-5 -116 -220 0
1 117 125 0
-1 -117 -125 0
2 117 149 0
-2 -117 -149 0
3 117 173 0
-3 -117 -173 0
4 117 197 0
-4 -117 -197 0
5 117 221 0
-5 -117 -221 0
1 118 126 0
-1 -118 -126 0
2 118 150 0
-2 -118 -150 0
3 118 174 0
-3 -118 -174 0
4 118 198 0
-4 -118 -198 0
5 118 222 0
-5 -118 -222 0
1 119 127 0
-1 -119 -127 0
2 119 151 0
-2 -119 -151 0
3 119 175 0
-3 -119 -175 0
4 119 199 0
-4 -119 -199 0
5 119 223 0
-5 -119 -223 0
1 120 128 0
-1 -120 -128 0
2 120 152 0
-2 -120 -152 0
3 120 176 0
-3 -120 -176 0
4 120 200 0
-4 -120 -200 0
5 120 224 0
-5 -120 -224 0
1 121 129 0
-1 -121 -129 0
2 121 153 0
-2 -121 -153 0
3 121 177 0
-3 -121 -177 0
4 121 201 0
-4 -121 -201 0
5 121 225 0
-5 -121 -225 0
1 122 130 0
-1 -122 -130 0
2 122 154 0
-2 -122 -154 0
3 122 178 0
-3 -122 -178 0
4 122 202 0
-4 -122 -202 0
5 122 226 0
-5 -122 -226 0
1 123 131 0
-1 -123 -131 0
2 123 155 0
-2 -123 -155 0
3 123 179 0
-3 -123 -179 0
4 123 203 0
-4 -123 -203 0
5 123 227 0
-5 -123 -227 0
1 124 132 0
-1 -124 -132 0
2 124 156 0
-2 -124 -156 0
3 124 180 0
-3 -124 -180 0
4 124 204 0
-4 -124 -204 0
5 124 228 0
-5 -124 -228 0
1 125 133 0
-1 -125 -133 0
2 125 157 0
-2 -125 -157 0
3 125 181 0
-3 -125 -181 0
4 125 205 0
-4 -125 -205 0
5 125 229 0
-5 -125 -229 0
1 126 134 0
-1 -126 -134 0
2 126 158 0
-2 -126 -158 0
3 126 182 0
-3 -126 -182 0
4 126 206 0
-4 -126 -206 0
5 126 230 0
-5 -126 -230 0
1 127 135 0
-1 -127 -135 0
2 127 159 0
-2 -127 -159 0
3 127 183 0
-3 -127 -183 0
4 127 207 0
-4 -127 -207 0
5 127 231 0
-5 -127 -231 0
1 128 136 0
-1 -128 -136 0
2 128 160 0
-2 -128 -160 0
3 128 184 0
-3 -128 -184 0
4 128 208 0
-4 -128 -208 0
5 128 232 0
-5 -128 -232 0
1 129 137 0
-1 -129 -137 0
2 129 161 0
-2 -129 -161 0
3 129 185 0
-3 -129 -185 0
4 129 209 0
-4 -129 -209 0
5 129 233 0
-5 -129 -233 0
1 130 138 0
-1 -130 -138 0
2 130 162 0
-2 -130 -162 0
3 130 186 0
-3 -130 -186 0
4 130 210 0
-4 -130 -210 0
1 131 139 0
-1 -131 -139 0
2 131 163 0
-2 -131 -163 0
3 131 187 0
-3 -131 -187 0
4 131 211 0
-4 -131 -211 0
1 132 140 0
-1 -132 -140 0
2 132 164 0
-2 -132 -164 0
3 132 188 0
-3 -132 -188 0
4 132 212 0
-4 -132 -212 0
1 133 141 0
-1 -133 -141 0
2 133 165 0
-2 -133 -165 0
3 133 189 0
-3 -133 -189 0
4 133 213 0
-4 -133 -213 0
1 134 142 0
-1 -134 -142 0
2 134 166 0
-2 -134 -166 0
3 134 190 0
-3 -134 -190 0
4 134 214 0
-4 -134 -214 0
1 135 143 0
-1 -135 -143 0
2 135 167 0
-2 -135 -167 0
3 135 191 0
-3 -135 -191 0
4 135 215 0
-4 -135 -215 0
1 136 144 0
-1 -136 -144 0
2 136 168 0
-2 -136 -168 0
3 136 192 0
-3 -136 -192 0
4 136 216 0
-4 -136 -216 0
1 137 145 0
-1 -137 -145 0
2 137 169 0
-2 -137 -169 0
3 137 193 0
-3 -137 -193 0
4 137 217 0
-4 -137 -217 0
1 138 146 0
-1 -138 -146 0
2 138 170 0
-2 -138 -170 0
3 138 194 0
-3 -138 -194 0
4 138 218 0
-4 -138 -218 0
1 139 147 0
-1 -139 -147 0
2 139 171 0
-2 -139 -171 0
3 139 195 0
-3 -139 -195 0
4 139 219 0
-4 -139 -219 0
1 140 148 0
-1 -140 -148 0
2 140 172 0
-2 -140 -172 0
3 140 196 0
-3 -140 -196 0
4 140 220 0
-4 -140 -220 0
1 141 149 0
-1 -141 -149 0
2 141 173 0
-2 -141 -173 0
3 141 197 0
-3 -141 -197 0
4 141 221 0
-4 -141 -221 0
1 142 150 0
-1 -142 -150 0
2 142 174 0
-2 -142 -174 0
3 142 198 0
-3 -142 -198 0
4 142 222 0
-4 -142 -222 0
1 143 151 0
-1 -143 -151 0
2 143 175 0
-2 -143 -175 0
3 143 199 0
-3 -143 -199 0
4 143 223 0
-4 -143 -223 0
1 144 152 0
-1 -144 -152 0
2 144 176 0
-2 -144 -176 0
3 144 200 0
-3 -144 -200 0
4 144 224 0
-4 -144 -224 0
1 145 153 0
-1 -145 -153 0
2 145 177 0
-2 -145 -177 0
3 145 201 0
-3 -145 -201 0
4 145 225 0
-4 -145 -225 0
1 146 154 0
-1 -146 -154 0
2 146 178 0
-2 -146 -178 0
3 146 202 0
-3 -146 -202 0
4 146 226 0
-4 -146 -226 0
1 147 155 0
-1 -147 -155 0
2 147 179 0
-2 -147 -179 0
3 147 203 0
-3 -147 -203 0
4 147 227 0
-4 -147 -227 0
1 148 156 0
-1 -148 -156 0
2 148 180 0
-2 -148 -180 0
3 148 204 0
-3 -148 -204 0
4 148 228 0
-4 -148 -228 0
1 149 157 0
-1 -149 -157 0
2 149 181 0
-2 -149 -181 0
3 149 205 0
-3 -149 -205 0
4 149 229 0
-4 -149 -229 0
1 150 158 0
-1 -150 -158 0
2 150 182 0
-2 -150 -182 0
3 150 206 0
-3 -150 -206 0
4 150 230 0
-4 -150 -230 0
1 151 159 0
-1 -151 -159 0
2 151 183 0
-2 -151 -183 0
3 151 207 0
-3 -151 -207 0
4 151 231 0
-4 -151 -231 0
1 152 160 0
-1 -152 -160 0
2 152 184 0
-2 -152 -184 0
3 152 208 0
-3 -152 -208 0
4 152 232 0
-4 -152 -232 0
1 153 161 0
-1 -153 -161 0
2 153 185 0
-2 -153 -185 0
3 153 209 0
-3 -153 -209 0
4 153 233 0
-4 -153 -233 0
1 154 162 0
-1 -154 -162 0
2 154 186 0
-2 -154 -186 0
3 154 210 0
-3 -154 -210 0
1 155 163 0
-1 -155 -163 0
2 155 187 0
-2 -155 -187 0
3 155 211 0
-3 -155 -211 0
1 156 164 0
-1 -156 -164 0
2 156 188 0
-2 -156 -188 0
3 156 212 0
-3 -156 -212 0
1 157 165 0
-1 -157 -165 0
2 157 189 0
-2 -157 -189 0
3 157 213 0
-3 -157 -213 0
1 158 166 0
-1 -158 -166 0
2 158 190 0
-2 -158 -190 0
3 158 214 0
-3 -158 -214 0
1 159 167 0
-1 -159 -167 0
2 159 191 0
-2 -159 -191 0
3 159 215 0
-3 -159 -215 0
1 160 168 0
-1 -160 -168 0
2 160 192 0
-2 -160 -192 0
3 160 216 0
-3 -160 -216 0
1 161 169 0
-1 -161 -169 0
2 161 193 0
-2 -161 -193 0
3 161 217 0
-3 -161 -217 0
1 162 170 0
-1 -162 -170 0
2 162 194 0
-2 -162 -194 0
3 162 218 0
-3 -162 -218 0
1 163 171 0
-1 -163 -171 0
2 163 195 0
-2 -163 -195 0
3 163 219 0
-3 -163 -219 0
1 164 172 0
-1 -164 -172 0
2 164 196 0
-2 -164 -196 0
3 164 220 0
-3 -164 -220 0
1 165 173 0
-1 -165 -173 0
2 165 197 0
-2 -165 -197 0
3 165 221 0
-3 -165 -221 0
1 166 174 0
-1 -166 -174 0
2 166 198 0
-2 -166 -198 0
3 166 222 0
-3 -166 -222 0
1 167 175 0
-1 -167 -175 0
2 167 199 0
-2 -167 -199 0
3 167 223 0
-3 -167 -223 0
1 168 176 0
-1 -168 -176 0
2 168 200 0
-2 -168 -200 0
3 168 224 0
-3 -168 -224 0
1 169 177 0
-1 -169 -177 0
2 169 201 0
-2 -169 -201 0
3 169 225 0
-3 -169 -225 0
1 170 178 0
-1 -170 -178 0
2 170 202 0
-2 -170 -202 0
3 170 226 0
-3 -170 -226 0
1 171 179 0
-1 -171 -179 0
2 171 203 0
-2 -171 -203 0
3 171 227 0
-3 -171 -227 0
1 172 180 0
-1 -172 -180 0
2 172 204 0
-2 -172 -204 0
3 172 228 0
-3 -172 -228 0
1 173 181 0
-1 -173 -181 0
2 173 205 0
-2 -173 -205 0
3 173 229 0
-3 -173 -229 0
1 174 182 0
-1 -174 -182 0
2 174 206 0
-2 -174 -206 0
3 174 230 0
-3 -174 -230 0
1 175 183 0
-1 -175 -183 0
2 175 207 0
-2 -175 -207 0
3 175 231 0
-3 -175 -231 0
1 176 184 0
-1 -176 -184 0
2 176 208 0
-2 -176 -208 0
3 176 232 0
-3 -176 -232 0
1 177 185 0
-1 -177 -185 0
2 177 209 0
-2 -177 -209 0
3 177 233 0
-3 -177 -233 0
1 178 186 0
-1 -178 -186 0
2 178 210 0
-2 -178 -210 0
1 179 187 0
-1 -179 -187 0
2 179 211 0
-2 -179 -211 0
1 180 188 0
-1 -180 -188 0
2 180 212 0
-2 -180 -212 0
1 181 189 0
-1 -181 -189 0
2 181 213 0
-2 -181 -213 0
1 182 190 0
-1 -182 -190 0
2 182 214 0
-2 -182 -214 0
1 183 191 0
-1 -183 -191 0
2 183 215 0
-2 -183 -215 0
1 184 192 0
-1 -184 -192 0
2 184 216 0
-2 -184 -216 0
1 185 193 0
-1 -185 -193 0
2 185 217 0
-2 -185 -217 0
1 186 194 0
-1 -186 -194 0
2 186 218 0
-2 -186 -218 0
1 187 195 0
-1 -187 -195 0
2 187 219 0
-2 -187 -219 0
1 188 196 0
-1 -188 -196 0
2 188 220 0
-2 -188 -220 0
1 189 197 0
-1 -189 -197 0
2 189 221 0
-2 -189 -221 0
1 190 198 0
-1 -190 -198 0
2 190 222 0
-2 -190 -222 0
1 191 199 0
-1 -191 -199 0
2 191 223 0
-2 -191 -223 0
1 192 200 0
-1 -192 -200 0
2 192 224 0
-2 -192 -224 0
1 193 201 0
-1 -193 -201 0
2 193 225 0
-2 -193 -225 0
1 194 202 0
-1 -194 -202 0
2 194 226 0
-2 -194 -226 0
1 195 203 0
-1 -195 -203 0
2 195 227 0
-2 -195 -227 0
1 196 204 0
-1 -196 -204 0
2 196 228 0
-2 -196 -228 0
1 197 205 0
-1 -197 -205 0
2 197 229 0
-2 -197 -229 0
1 198 206 0
-1 -198 -206 0
2 198 230 0
-2 -198 -230 0
1 199 207 0
-1 -199 -207 0
2 199 231 0
-2 -199 -231 0
1 200 208 0
-1 -200 -208 0
2 200 232 0
-2 -200 -232 0
1 201 209 0
-1 -201 -209 0
2 201 233 0
-2 -201 -233 0
1 202 210 0
-1 -202 -210 0
1 203 211 0
-1 -203 -211 0
1 204 212 0
-1 -204 -212 0
1 205 213 0
-1 -205 -213 0
1 206 214 0
-1 -206 -214 0
1 207 215 0
-1 -207 -215 0
1 208 216 0
-1 -208 -216 0
1 209 217 0
-1 -209 -217 0
1 210 218 0
-1 -210 -218 0
1 211 219 0
-1 -211 -219 0
1 212 220 0
-1 -212 -220 0
1 213 221 0
-1 -213 -221 0
1 214 222 0
-1 -214 -222 0
1 215 223 0
-1 -215 -223 0
1 216 224 0
-1 -216 -224 0
1 217 225 0
-1 -217 -225 0
1 218 226 0
-1 -218 -226 0
1 219 227 0
-1 -219 -227 0
1 220 228 0
-1 -220 -228 0
1 221 229 0
-1 -221 -229 0
1 222 230 0
-1 -222 -230 0
1 223 231 0
-1 -223 -231 0
1 224 232 0
-1 -224 -232 0
1 225 233 0
-1 -225 -233 0
