certificates/rado_a24_c16_N233.drat
-225 -233 0
d -225 -1 -233 0
25 33 225 0
-9 -233 0
-233 0
225 0
9 0
-1 0
-209 0
-25 0
217 0
201 0
33 0
17 0
0
